17	4	3
21	18	23	21	15	15	13	
0	0	0	0	0	2	5	9	4	7	9	3	2	3	4
6	1	6	5	3	6	9	9	7	5	5	1	5
4	0	6	3	6	8	6	7	9	8	9	3	7	12	13
6	8	10	10	2	2	7	4	10	2	10	2	6	12
6	2	1	2	1	9	3	4	7	8	4	1	17
50	3	0	0	3	4	10	9	2	3	5	1	17
75	0	0	4	0	10	8	4	9	5	9	3	8	9	10
225	8	0	5	8	3	3	5	9	1	3	2	16	17
225	1	4	2	0	8	3	9	2	2	1	2	11	17
225	4	8	0	6	1	10	3	5	7	1	2	14	17
50	2	9	0	9	9	10	10	7	2	3	2	17	17
50	8	6	1	8	2	2	1	6	10	5	1	17
3	2	6	10	8	4	3	8	9	2	9	1	15
8	3	7	0	6	1	10	1	10	1	2	2	15	17
9	7	5	7	0	10	2	2	3	6	9	1	17
10	5	0	0	6	4	4	9	3	1	10	1	17
0	0	0	0	0	6	2	1	6	7	1	0
